begin Projections
random
end Projections
begin atoms_cart
Ang
mn_1          0.000000       0.000000       0.000000
o_2           2.222850      -2.222850      -2.222850
end atoms_cart
num_wann =   12
begin unit_cell_cart
Ang
    0.00000000      -2.22284999      -2.22284999
    2.22284999       0.00000000      -2.22284999
    2.22284999      -2.22284999       0.00000000
end unit_cell_cart
mp_grid =   10   10   10
begin kpoints
    0.00000000       0.00000000       0.00000000
    0.10000000       0.00000000       0.00000000
    0.20000000       0.00000000       0.00000000
    0.30000000       0.00000000       0.00000000
    0.40000000       0.00000000       0.00000000
    0.50000000       0.00000000       0.00000000
    0.10000000       0.10000000       0.00000000
    0.20000000       0.10000000       0.00000000
    0.30000000       0.10000000       0.00000000
    0.40000000       0.10000000       0.00000000
    0.40000000       0.50000000       0.50000000
   -0.40000000       0.10000000       0.00000000
   -0.30000000       0.10000000       0.00000000
   -0.20000000       0.10000000       0.00000000
   -0.10000000       0.10000000       0.00000000
    0.20000000       0.20000000       0.00000000
    0.30000000       0.20000000       0.00000000
    0.40000000       0.20000000       0.00000000
    0.50000000       0.20000000       0.00000000
   -0.40000000       0.20000000       0.00000000
   -0.30000000       0.20000000       0.00000000
   -0.20000000       0.20000000       0.00000000
    0.30000000       0.30000000       0.00000000
    0.00000000      -0.40000000      -0.30000000
    0.50000000       0.30000000       0.00000000
    0.60000000       0.30000000       0.00000000
   -0.60000000      -0.30000000      -0.30000000
    0.40000000       0.40000000       0.00000000
    0.50000000       0.40000000       0.00000000
    0.60000000       0.40000000       0.00000000
    0.50000000       0.50000000       0.00000000
    0.30000000       0.20000000       0.10000000
    0.40000000       0.20000000       0.10000000
   -0.50000000      -0.40000000      -0.30000000
    0.40000000       0.50000000       0.60000000
    0.40000000       0.30000000       0.10000000
   -0.50000000      -0.40000000      -0.20000000
    0.60000000       0.30000000       0.50000000
    0.60000000       0.30000000       0.20000000
   -0.20000000       0.30000000       0.10000000
    0.50000000       0.40000000       0.10000000
    0.60000000       0.40000000       0.10000000
   -0.30000000       0.40000000       0.10000000
   -0.40000000      -0.50000000       0.10000000
    0.60000000       0.40000000       0.20000000
   -0.20000000      -0.40000000       0.30000000
    0.70000000       0.50000000       0.20000000
   -0.10000000       0.00000000       0.00000000
    0.00000000      -0.10000000       0.00000000
   -0.00000000       0.10000000      -0.00000000
    0.00000000       0.00000000       0.10000000
   -0.00000000       0.00000000      -0.10000000
    0.10000000       0.10000000       0.10000000
   -0.10000000      -0.10000000      -0.10000000
   -0.20000000       0.00000000       0.00000000
    0.00000000      -0.20000000       0.00000000
   -0.00000000       0.20000000      -0.00000000
    0.00000000       0.00000000       0.20000000
   -0.00000000       0.00000000      -0.20000000
    0.20000000       0.20000000       0.20000000
   -0.20000000      -0.20000000      -0.20000000
   -0.30000000       0.00000000       0.00000000
    0.00000000      -0.30000000       0.00000000
   -0.00000000       0.30000000      -0.00000000
    0.00000000       0.00000000       0.30000000
   -0.00000000       0.00000000      -0.30000000
    0.30000000       0.30000000       0.30000000
   -0.30000000      -0.30000000      -0.30000000
   -0.40000000       0.00000000       0.00000000
    0.00000000      -0.40000000       0.00000000
   -0.00000000       0.40000000      -0.00000000
    0.00000000       0.00000000       0.40000000
   -0.00000000       0.00000000      -0.40000000
    0.40000000       0.40000000       0.40000000
   -0.40000000      -0.40000000      -0.40000000
    0.00000000      -0.50000000       0.00000000
    0.00000000       0.00000000       0.50000000
    0.50000000       0.50000000       0.50000000
   -0.10000000      -0.10000000       0.00000000
    0.00000000      -0.10000000      -0.10000000
    0.00000000       0.10000000       0.10000000
   -0.10000000       0.00000000      -0.10000000
    0.10000000       0.00000000       0.10000000
   -0.20000000      -0.10000000       0.00000000
    0.00000000      -0.20000000      -0.10000000
   -0.00000000       0.20000000       0.10000000
   -0.10000000      -0.10000000       0.10000000
    0.10000000       0.10000000      -0.10000000
    0.10000000       0.20000000       0.20000000
   -0.10000000      -0.20000000      -0.20000000
   -0.20000000      -0.20000000      -0.10000000
    0.20000000       0.20000000       0.10000000
   -0.10000000       0.10000000       0.10000000
    0.10000000      -0.10000000      -0.10000000
    0.10000000       0.20000000      -0.00000000
   -0.10000000      -0.20000000       0.00000000
   -0.00000000      -0.10000000      -0.20000000
    0.00000000       0.10000000       0.20000000
   -0.10000000       0.10000000      -0.10000000
    0.10000000      -0.10000000       0.10000000
   -0.10000000       0.00000000      -0.20000000
    0.10000000       0.00000000       0.20000000
   -0.20000000      -0.10000000      -0.20000000
    0.20000000       0.10000000       0.20000000
   -0.20000000       0.00000000      -0.10000000
    0.20000000       0.00000000       0.10000000
   -0.30000000      -0.10000000       0.00000000
    0.00000000      -0.30000000      -0.10000000
   -0.00000000       0.30000000       0.10000000
   -0.10000000      -0.10000000       0.20000000
    0.10000000       0.10000000      -0.20000000
    0.20000000       0.30000000       0.30000000
   -0.20000000      -0.30000000      -0.30000000
   -0.30000000      -0.30000000      -0.20000000
    0.30000000       0.30000000       0.20000000
   -0.20000000       0.10000000       0.10000000
    0.20000000      -0.10000000      -0.10000000
    0.10000000       0.30000000      -0.00000000
   -0.10000000      -0.30000000       0.00000000
   -0.00000000      -0.10000000      -0.30000000
    0.00000000       0.10000000       0.30000000
   -0.10000000       0.20000000      -0.10000000
    0.10000000      -0.20000000       0.10000000
   -0.10000000      -0.00000000      -0.30000000
    0.10000000       0.00000000       0.30000000
   -0.30000000      -0.20000000      -0.30000000
    0.30000000       0.20000000       0.30000000
   -0.30000000       0.00000000      -0.10000000
    0.30000000      -0.00000000       0.10000000
   -0.40000000      -0.10000000       0.00000000
    0.00000000      -0.40000000      -0.10000000
   -0.00000000       0.40000000       0.10000000
   -0.10000000      -0.10000000       0.30000000
    0.10000000       0.10000000      -0.30000000
    0.30000000       0.40000000       0.40000000
   -0.30000000      -0.40000000      -0.40000000
   -0.40000000      -0.40000000      -0.30000000
    0.40000000       0.40000000       0.30000000
   -0.30000000       0.10000000       0.10000000
    0.30000000      -0.10000000      -0.10000000
    0.10000000       0.40000000      -0.00000000
   -0.10000000      -0.40000000       0.00000000
   -0.00000000      -0.10000000      -0.40000000
    0.00000000       0.10000000       0.40000000
   -0.10000000       0.30000000      -0.10000000
    0.10000000      -0.30000000       0.10000000
   -0.10000000       0.00000000      -0.40000000
    0.10000000       0.00000000       0.40000000
   -0.40000000      -0.30000000      -0.40000000
    0.40000000       0.30000000       0.40000000
   -0.40000000       0.00000000      -0.10000000
    0.40000000       0.00000000       0.10000000
   -0.40000000      -0.50000000      -0.50000000
    0.50000000       0.10000000       0.00000000
   -0.50000000      -0.10000000      -0.00000000
    0.00000000      -0.50000000      -0.10000000
   -0.00000000       0.50000000       0.10000000
   -0.10000000      -0.10000000       0.40000000
    0.10000000       0.10000000      -0.40000000
   -0.40000000       0.10000000       0.10000000
    0.40000000      -0.10000000      -0.10000000
    0.10000000       0.50000000      -0.00000000
   -0.10000000      -0.50000000       0.00000000
   -0.00000000      -0.10000000      -0.50000000
    0.00000000       0.10000000       0.50000000
   -0.50000000      -0.50000000      -0.40000000
    0.50000000       0.50000000       0.40000000
    0.10000000      -0.40000000       0.10000000
   -0.10000000       0.40000000      -0.10000000
    0.10000000       0.00000000       0.50000000
   -0.10000000      -0.00000000      -0.50000000
    0.50000000       0.40000000       0.50000000
   -0.50000000      -0.40000000      -0.50000000
    0.50000000      -0.00000000       0.10000000
   -0.50000000       0.00000000      -0.10000000
    0.40000000      -0.10000000       0.00000000
   -0.00000000       0.40000000      -0.10000000
    0.00000000      -0.40000000       0.10000000
   -0.10000000      -0.10000000      -0.50000000
    0.10000000       0.10000000       0.50000000
   -0.50000000      -0.40000000      -0.40000000
    0.50000000       0.40000000       0.40000000
    0.40000000       0.40000000       0.50000000
   -0.40000000      -0.40000000      -0.50000000
    0.50000000       0.10000000       0.10000000
   -0.50000000      -0.10000000      -0.10000000
    0.10000000      -0.40000000       0.00000000
   -0.10000000       0.40000000      -0.00000000
    0.00000000      -0.10000000       0.40000000
   -0.00000000       0.10000000      -0.40000000
   -0.10000000      -0.50000000      -0.10000000
    0.10000000       0.50000000       0.10000000
   -0.10000000       0.00000000       0.40000000
    0.10000000       0.00000000      -0.40000000
    0.40000000       0.50000000       0.40000000
   -0.40000000      -0.50000000      -0.40000000
    0.40000000       0.00000000      -0.10000000
   -0.40000000       0.00000000       0.10000000
    0.30000000      -0.10000000       0.00000000
   -0.00000000       0.30000000      -0.10000000
    0.00000000      -0.30000000       0.10000000
   -0.10000000      -0.10000000      -0.40000000
    0.10000000       0.10000000       0.40000000
   -0.40000000      -0.30000000      -0.30000000
    0.40000000       0.30000000       0.30000000
    0.30000000       0.30000000       0.40000000
   -0.30000000      -0.30000000      -0.40000000
    0.40000000       0.10000000       0.10000000
   -0.40000000      -0.10000000      -0.10000000
    0.10000000      -0.30000000       0.00000000
   -0.10000000       0.30000000      -0.00000000
    0.00000000      -0.10000000       0.30000000
   -0.00000000       0.10000000      -0.30000000
   -0.10000000      -0.40000000      -0.10000000
    0.10000000       0.40000000       0.10000000
   -0.10000000       0.00000000       0.30000000
    0.10000000       0.00000000      -0.30000000
    0.30000000       0.40000000       0.30000000
   -0.30000000      -0.40000000      -0.30000000
    0.30000000       0.00000000      -0.10000000
   -0.30000000       0.00000000       0.10000000
    0.20000000      -0.10000000       0.00000000
   -0.00000000       0.20000000      -0.10000000
    0.00000000      -0.20000000       0.10000000
   -0.10000000      -0.10000000      -0.30000000
    0.10000000       0.10000000       0.30000000
   -0.30000000      -0.20000000      -0.20000000
    0.30000000       0.20000000       0.20000000
    0.20000000       0.20000000       0.30000000
   -0.20000000      -0.20000000      -0.30000000
    0.30000000       0.10000000       0.10000000
   -0.30000000      -0.10000000      -0.10000000
    0.10000000      -0.20000000       0.00000000
   -0.10000000       0.20000000      -0.00000000
    0.00000000      -0.10000000       0.20000000
   -0.00000000       0.10000000      -0.20000000
   -0.10000000      -0.30000000      -0.10000000
    0.10000000       0.30000000       0.10000000
   -0.10000000       0.00000000       0.20000000
    0.10000000       0.00000000      -0.20000000
    0.20000000       0.30000000       0.20000000
   -0.20000000      -0.30000000      -0.20000000
    0.20000000       0.00000000      -0.10000000
   -0.20000000       0.00000000       0.10000000
    0.10000000      -0.10000000       0.00000000
   -0.00000000       0.10000000      -0.10000000
    0.00000000      -0.10000000       0.10000000
   -0.10000000      -0.10000000      -0.20000000
    0.10000000       0.10000000       0.20000000
   -0.20000000      -0.10000000      -0.10000000
    0.20000000       0.10000000       0.10000000
   -0.10000000      -0.20000000      -0.10000000
    0.10000000       0.20000000       0.10000000
   -0.10000000       0.00000000       0.10000000
    0.10000000       0.00000000      -0.10000000
   -0.20000000      -0.20000000       0.00000000
    0.00000000      -0.20000000      -0.20000000
    0.00000000       0.20000000       0.20000000
   -0.20000000       0.00000000      -0.20000000
    0.20000000       0.00000000       0.20000000
   -0.30000000      -0.20000000       0.00000000
    0.00000000      -0.30000000      -0.20000000
   -0.00000000       0.30000000       0.20000000
   -0.20000000      -0.20000000       0.10000000
    0.20000000       0.20000000      -0.10000000
    0.10000000       0.30000000       0.30000000
   -0.10000000      -0.30000000      -0.30000000
   -0.30000000      -0.30000000      -0.10000000
    0.30000000       0.30000000       0.10000000
   -0.10000000       0.20000000       0.20000000
    0.10000000      -0.20000000      -0.20000000
    0.20000000       0.30000000      -0.00000000
   -0.20000000      -0.30000000       0.00000000
   -0.00000000      -0.20000000      -0.30000000
    0.00000000       0.20000000       0.30000000
   -0.20000000       0.10000000      -0.20000000
    0.20000000      -0.10000000       0.20000000
   -0.20000000      -0.00000000      -0.30000000
    0.20000000       0.00000000       0.30000000
   -0.30000000      -0.10000000      -0.30000000
    0.30000000       0.10000000       0.30000000
   -0.30000000       0.00000000      -0.20000000
    0.30000000      -0.00000000       0.20000000
   -0.40000000      -0.20000000       0.00000000
    0.00000000      -0.40000000      -0.20000000
   -0.00000000       0.40000000       0.20000000
   -0.20000000      -0.20000000       0.20000000
    0.20000000       0.20000000      -0.20000000
    0.20000000       0.40000000       0.40000000
   -0.20000000      -0.40000000      -0.40000000
   -0.40000000      -0.40000000      -0.20000000
    0.40000000       0.40000000       0.20000000
   -0.20000000       0.20000000       0.20000000
    0.20000000      -0.20000000      -0.20000000
    0.20000000       0.40000000      -0.00000000
   -0.20000000      -0.40000000       0.00000000
   -0.00000000      -0.20000000      -0.40000000
    0.00000000       0.20000000       0.40000000
   -0.20000000       0.20000000      -0.20000000
    0.20000000      -0.20000000       0.20000000
   -0.20000000       0.00000000      -0.40000000
    0.20000000       0.00000000       0.40000000
   -0.40000000      -0.20000000      -0.40000000
    0.40000000       0.20000000       0.40000000
   -0.40000000       0.00000000      -0.20000000
    0.40000000       0.00000000       0.20000000
   -0.50000000      -0.20000000       0.00000000
    0.00000000      -0.50000000      -0.20000000
   -0.00000000       0.50000000       0.20000000
   -0.20000000      -0.20000000       0.30000000
    0.20000000       0.20000000      -0.30000000
    0.30000000       0.50000000       0.50000000
   -0.30000000      -0.50000000      -0.50000000
   -0.50000000      -0.50000000      -0.30000000
    0.50000000       0.50000000       0.30000000
   -0.30000000       0.20000000       0.20000000
    0.30000000      -0.20000000      -0.20000000
    0.20000000       0.50000000      -0.00000000
   -0.20000000      -0.50000000       0.00000000
   -0.00000000      -0.20000000      -0.50000000
    0.00000000       0.20000000       0.50000000
   -0.20000000       0.30000000      -0.20000000
    0.20000000      -0.30000000       0.20000000
   -0.20000000       0.00000000      -0.50000000
    0.20000000       0.00000000       0.50000000
   -0.50000000      -0.30000000      -0.50000000
    0.50000000       0.30000000       0.50000000
   -0.50000000       0.00000000      -0.20000000
    0.50000000       0.00000000       0.20000000
    0.40000000      -0.20000000       0.00000000
   -0.00000000       0.40000000      -0.20000000
    0.00000000      -0.40000000       0.20000000
   -0.20000000      -0.20000000      -0.60000000
    0.20000000       0.20000000       0.60000000
   -0.60000000      -0.40000000      -0.40000000
    0.60000000       0.40000000       0.40000000
    0.40000000       0.40000000       0.60000000
   -0.40000000      -0.40000000      -0.60000000
    0.60000000       0.20000000       0.20000000
   -0.60000000      -0.20000000      -0.20000000
    0.20000000      -0.40000000       0.00000000
   -0.20000000       0.40000000      -0.00000000
    0.00000000      -0.20000000       0.40000000
   -0.00000000       0.20000000      -0.40000000
   -0.20000000      -0.60000000      -0.20000000
    0.20000000       0.60000000       0.20000000
   -0.20000000       0.00000000       0.40000000
    0.20000000       0.00000000      -0.40000000
    0.40000000       0.60000000       0.40000000
   -0.40000000      -0.60000000      -0.40000000
    0.40000000       0.00000000      -0.20000000
   -0.40000000       0.00000000       0.20000000
    0.30000000      -0.20000000       0.00000000
   -0.00000000       0.30000000      -0.20000000
    0.00000000      -0.30000000       0.20000000
   -0.20000000      -0.20000000      -0.50000000
    0.20000000       0.20000000       0.50000000
   -0.50000000      -0.30000000      -0.30000000
    0.50000000       0.30000000       0.30000000
    0.30000000       0.30000000       0.50000000
   -0.30000000      -0.30000000      -0.50000000
    0.50000000       0.20000000       0.20000000
   -0.50000000      -0.20000000      -0.20000000
    0.20000000      -0.30000000       0.00000000
   -0.20000000       0.30000000      -0.00000000
    0.00000000      -0.20000000       0.30000000
   -0.00000000       0.20000000      -0.30000000
   -0.20000000      -0.50000000      -0.20000000
    0.20000000       0.50000000       0.20000000
   -0.20000000       0.00000000       0.30000000
    0.20000000       0.00000000      -0.30000000
    0.30000000       0.50000000       0.30000000
   -0.30000000      -0.50000000      -0.30000000
    0.30000000       0.00000000      -0.20000000
   -0.30000000       0.00000000       0.20000000
    0.20000000      -0.20000000       0.00000000
   -0.00000000       0.20000000      -0.20000000
    0.00000000      -0.20000000       0.20000000
   -0.20000000      -0.20000000      -0.40000000
    0.20000000       0.20000000       0.40000000
   -0.40000000      -0.20000000      -0.20000000
    0.40000000       0.20000000       0.20000000
   -0.20000000      -0.40000000      -0.20000000
    0.20000000       0.40000000       0.20000000
   -0.20000000       0.00000000       0.20000000
    0.20000000       0.00000000      -0.20000000
   -0.30000000      -0.30000000       0.00000000
    0.00000000      -0.30000000      -0.30000000
    0.00000000       0.30000000       0.30000000
   -0.30000000       0.00000000      -0.30000000
    0.30000000       0.00000000       0.30000000
    0.00000000       0.40000000       0.30000000
   -0.30000000      -0.30000000       0.10000000
    0.30000000       0.30000000      -0.10000000
    0.10000000       0.40000000       0.40000000
   -0.10000000      -0.40000000      -0.40000000
    0.40000000       0.30000000       0.00000000
   -0.40000000      -0.30000000      -0.00000000
    0.00000000      -0.30000000      -0.40000000
   -0.00000000       0.30000000       0.40000000
   -0.40000000      -0.40000000      -0.10000000
    0.40000000       0.40000000       0.10000000
   -0.10000000       0.30000000       0.30000000
    0.10000000      -0.30000000      -0.30000000
    0.30000000       0.40000000      -0.00000000
   -0.30000000      -0.40000000       0.00000000
   -0.40000000       0.00000000      -0.30000000
    0.40000000       0.00000000       0.30000000
   -0.30000000       0.10000000      -0.30000000
    0.30000000      -0.10000000       0.30000000
   -0.30000000       0.00000000      -0.40000000
    0.30000000       0.00000000       0.40000000
   -0.40000000      -0.10000000      -0.40000000
    0.40000000       0.10000000       0.40000000
   -0.50000000      -0.30000000       0.00000000
    0.00000000      -0.50000000      -0.30000000
   -0.00000000       0.50000000       0.30000000
   -0.30000000      -0.30000000       0.20000000
    0.30000000       0.30000000      -0.20000000
    0.20000000       0.50000000       0.50000000
   -0.20000000      -0.50000000      -0.50000000
   -0.50000000      -0.50000000      -0.20000000
    0.50000000       0.50000000       0.20000000
   -0.20000000       0.30000000       0.30000000
    0.20000000      -0.30000000      -0.30000000
    0.30000000       0.50000000      -0.00000000
   -0.30000000      -0.50000000       0.00000000
   -0.00000000      -0.30000000      -0.50000000
    0.00000000       0.30000000       0.50000000
   -0.30000000       0.20000000      -0.30000000
    0.30000000      -0.20000000       0.30000000
   -0.30000000      -0.00000000      -0.50000000
    0.30000000       0.00000000       0.50000000
   -0.50000000      -0.20000000      -0.50000000
    0.50000000       0.20000000       0.50000000
   -0.50000000       0.00000000      -0.30000000
    0.50000000      -0.00000000       0.30000000
   -0.60000000      -0.30000000       0.00000000
    0.00000000      -0.60000000      -0.30000000
   -0.00000000       0.60000000       0.30000000
   -0.30000000      -0.30000000       0.30000000
    0.30000000       0.30000000      -0.30000000
    0.30000000       0.60000000       0.60000000
   -0.30000000      -0.60000000      -0.60000000
   -0.60000000      -0.60000000      -0.30000000
    0.60000000       0.60000000       0.30000000
   -0.30000000       0.30000000       0.30000000
    0.30000000      -0.30000000      -0.30000000
    0.30000000       0.60000000      -0.00000000
   -0.30000000      -0.60000000       0.00000000
   -0.00000000      -0.30000000      -0.60000000
    0.00000000       0.30000000       0.60000000
   -0.30000000       0.30000000      -0.30000000
    0.30000000      -0.30000000       0.30000000
   -0.30000000       0.00000000      -0.60000000
    0.30000000       0.00000000       0.60000000
   -0.60000000      -0.30000000      -0.60000000
    0.60000000       0.30000000       0.60000000
   -0.60000000       0.00000000      -0.30000000
    0.60000000       0.00000000       0.30000000
    0.60000000       0.30000000       0.30000000
   -0.30000000       0.30000000      -0.00000000
    0.30000000      -0.30000000       0.00000000
   -0.00000000       0.30000000      -0.30000000
    0.00000000      -0.30000000       0.30000000
   -0.30000000      -0.30000000      -0.60000000
    0.30000000       0.30000000       0.60000000
    0.30000000       0.60000000       0.30000000
   -0.30000000      -0.60000000      -0.30000000
    0.30000000      -0.00000000      -0.30000000
   -0.30000000       0.00000000       0.30000000
   -0.40000000      -0.40000000       0.00000000
    0.00000000      -0.40000000      -0.40000000
    0.00000000       0.40000000       0.40000000
   -0.40000000       0.00000000      -0.40000000
    0.40000000       0.00000000       0.40000000
   -0.50000000      -0.40000000       0.00000000
    0.00000000      -0.50000000      -0.40000000
   -0.00000000       0.50000000       0.40000000
   -0.40000000      -0.40000000       0.10000000
    0.40000000       0.40000000      -0.10000000
    0.10000000       0.50000000       0.50000000
   -0.10000000      -0.50000000      -0.50000000
   -0.50000000      -0.50000000      -0.10000000
    0.50000000       0.50000000       0.10000000
   -0.10000000       0.40000000       0.40000000
    0.10000000      -0.40000000      -0.40000000
    0.40000000       0.50000000      -0.00000000
   -0.40000000      -0.50000000       0.00000000
   -0.00000000      -0.40000000      -0.50000000
    0.00000000       0.40000000       0.50000000
   -0.40000000       0.10000000      -0.40000000
    0.40000000      -0.10000000       0.40000000
   -0.40000000      -0.00000000      -0.50000000
    0.40000000       0.00000000       0.50000000
   -0.50000000      -0.10000000      -0.50000000
    0.50000000       0.10000000       0.50000000
   -0.50000000       0.00000000      -0.40000000
    0.50000000      -0.00000000       0.40000000
   -0.60000000      -0.40000000       0.00000000
    0.00000000      -0.60000000      -0.40000000
   -0.00000000       0.60000000       0.40000000
   -0.40000000      -0.40000000       0.20000000
    0.40000000       0.40000000      -0.20000000
    0.20000000       0.60000000       0.60000000
   -0.20000000      -0.60000000      -0.60000000
   -0.40000000       0.20000000      -0.40000000
    0.40000000      -0.20000000       0.40000000
   -0.40000000      -0.00000000      -0.60000000
    0.40000000       0.00000000       0.60000000
    0.00000000      -0.50000000      -0.50000000
   -0.50000000       0.00000000      -0.50000000
   -0.30000000      -0.20000000      -0.10000000
    0.10000000      -0.20000000      -0.10000000
   -0.10000000       0.20000000       0.10000000
   -0.10000000      -0.20000000       0.10000000
    0.10000000       0.20000000      -0.10000000
    0.10000000       0.20000000       0.30000000
   -0.10000000      -0.20000000      -0.30000000
   -0.20000000       0.10000000      -0.10000000
    0.20000000      -0.10000000       0.10000000
   -0.10000000       0.10000000      -0.20000000
    0.10000000      -0.10000000       0.20000000
   -0.20000000      -0.10000000      -0.30000000
    0.20000000       0.10000000       0.30000000
   -0.30000000      -0.10000000      -0.20000000
    0.30000000       0.10000000       0.20000000
   -0.10000000      -0.30000000      -0.20000000
    0.10000000       0.30000000       0.20000000
   -0.20000000      -0.10000000       0.10000000
    0.20000000       0.10000000      -0.10000000
    0.10000000      -0.10000000      -0.20000000
   -0.10000000       0.10000000       0.20000000
   -0.20000000      -0.30000000      -0.10000000
    0.20000000       0.30000000       0.10000000
   -0.40000000      -0.20000000      -0.10000000
    0.10000000      -0.30000000      -0.10000000
   -0.10000000       0.30000000       0.10000000
   -0.10000000      -0.20000000       0.20000000
    0.10000000       0.20000000      -0.20000000
    0.20000000       0.30000000       0.40000000
   -0.20000000      -0.30000000      -0.40000000
   -0.40000000      -0.30000000      -0.20000000
    0.40000000       0.30000000       0.20000000
   -0.20000000       0.20000000       0.10000000
    0.20000000      -0.20000000      -0.10000000
    0.10000000       0.30000000      -0.10000000
   -0.10000000      -0.30000000       0.10000000
   -0.10000000      -0.20000000      -0.40000000
    0.10000000       0.20000000       0.40000000
   -0.20000000       0.20000000      -0.10000000
    0.20000000      -0.20000000       0.10000000
   -0.10000000       0.10000000      -0.30000000
    0.10000000      -0.10000000       0.30000000
   -0.30000000      -0.20000000      -0.40000000
    0.30000000       0.20000000       0.40000000
   -0.40000000      -0.10000000      -0.20000000
    0.40000000       0.10000000       0.20000000
    0.20000000       0.10000000       0.40000000
   -0.20000000      -0.10000000      -0.40000000
    0.40000000       0.20000000       0.30000000
   -0.40000000      -0.20000000      -0.30000000
    0.30000000      -0.10000000       0.10000000
   -0.30000000       0.10000000      -0.10000000
    0.10000000      -0.20000000       0.20000000
   -0.10000000       0.20000000      -0.20000000
   -0.20000000      -0.40000000      -0.30000000
    0.20000000       0.40000000       0.30000000
   -0.30000000      -0.10000000       0.10000000
    0.30000000       0.10000000      -0.10000000
    0.10000000       0.40000000       0.20000000
   -0.10000000      -0.40000000      -0.20000000
    0.20000000       0.10000000      -0.20000000
   -0.20000000      -0.10000000       0.20000000
    0.20000000      -0.10000000      -0.20000000
   -0.20000000       0.10000000       0.20000000
   -0.20000000      -0.40000000      -0.10000000
    0.20000000       0.40000000       0.10000000
   -0.10000000       0.10000000       0.30000000
    0.10000000      -0.10000000      -0.30000000
    0.30000000       0.40000000       0.20000000
   -0.30000000      -0.40000000      -0.20000000
    0.50000000       0.40000000       0.30000000
   -0.30000000       0.20000000       0.10000000
    0.30000000      -0.20000000      -0.10000000
    0.10000000       0.40000000      -0.10000000
   -0.10000000      -0.40000000       0.10000000
   -0.10000000      -0.20000000      -0.50000000
    0.10000000       0.20000000       0.50000000
    0.50000000       0.20000000       0.10000000
   -0.50000000      -0.20000000      -0.10000000
    0.10000000      -0.40000000      -0.10000000
   -0.10000000       0.40000000       0.10000000
   -0.10000000      -0.20000000       0.30000000
    0.10000000       0.20000000      -0.30000000
    0.30000000       0.40000000       0.50000000
   -0.30000000      -0.40000000      -0.50000000
    0.40000000      -0.10000000       0.10000000
   -0.40000000       0.10000000      -0.10000000
    0.10000000      -0.30000000       0.20000000
   -0.10000000       0.30000000      -0.20000000
    0.20000000       0.10000000       0.50000000
   -0.20000000      -0.10000000      -0.50000000